Gurobi 9.1.2 (linux64) logging started Fri Mar  4 09:05:22 2022

Gurobi Optimizer version 9.1.2 build v9.1.2rc0 (linux64)
Thread count: 12 physical cores, 24 logical processors, using up to 1 threads
Optimize a model with 5040 rows, 5040 columns and 50595 nonzeros
Model fingerprint: 0x4192cd66
Model has 48521 quadratic objective terms
Variable types: 5000 continuous, 40 integer (40 binary)
Coefficient statistics:
  Matrix range     [8e-04, 1e+00]
  Objective range  [2e-37, 9e-03]
  QObjective range [7e-06, 2e-04]
  Bounds range     [1e+00, 1e+00]
  RHS range        [2e+00, 2e+00]
Found heuristic solution: objective 23.1829149
Presolve removed 1721 rows and 1721 columns
Presolve time: 0.11s
Presolved: 3319 rows, 3319 columns, 42537 nonzeros
Presolved model has 30943 quadratic objective terms
Variable types: 3279 continuous, 40 integer (40 binary)
Warning: Markowitz tolerance tightened to 0.125
Warning: Markowitz tolerance tightened to 0.25

Root relaxation: objective 7.398161e+00, 3735 iterations, 1.31 seconds

    Nodes    |    Current Node    |     Objective Bounds      |     Work
 Expl Unexpl |  Obj  Depth IntInf | Incumbent    BestBd   Gap | It/Node Time

     0     0    7.39816    0   40   23.18291    7.39816  68.1%     -    1s
     0     0    7.50644    0   40   23.18291    7.50644  67.6%     -    2s
H    0     0                      11.9951885    7.50644  37.4%     -    2s
     0     0    7.54917    0   40   11.99519    7.54917  37.1%     -    2s
     0     0    7.68000    0   40   11.99519    7.68000  36.0%     -    2s
     0     0    7.79560    0   40   11.99519    7.79560  35.0%     -    3s
     0     0    7.86277    0   40   11.99519    7.86277  34.5%     -    3s
     0     0    7.87947    0   40   11.99519    7.87947  34.3%     -    4s
     0     0    7.99683    0   40   11.99519    7.99683  33.3%     -    4s
     0     0    8.00767    0   40   11.99519    8.00767  33.2%     -    5s
     0     0    8.05346    0   40   11.99519    8.05346  32.9%     -    5s
     0     0    8.07427    0   40   11.99519    8.07427  32.7%     -    6s
     0     0    8.10559    0   40   11.99519    8.10559  32.4%     -    6s
     0     0    8.17231    0   40   11.99519    8.17231  31.9%     -    6s
     0     0    8.20928    0   40   11.99519    8.20928  31.6%     -    7s
     0     0    8.25296    0   40   11.99519    8.25296  31.2%     -    7s
     0     0    8.34093    0   40   11.99519    8.34093  30.5%     -    8s
     0     0    8.37836    0   40   11.99519    8.37836  30.2%     -    8s
     0     0    8.40975    0   40   11.99519    8.40975  29.9%     -    9s
     0     0    8.45526    0   40   11.99519    8.45526  29.5%     -    9s
     0     0    8.47742    0   40   11.99519    8.47742  29.3%     -   10s
     0     0    8.49668    0   40   11.99519    8.49668  29.2%     -   10s
     0     0    8.52334    0   40   11.99519    8.52334  28.9%     -   11s
     0     0    8.54076    0   40   11.99519    8.54076  28.8%     -   11s
     0     0    8.60166    0   40   11.99519    8.60166  28.3%     -   11s
     0     0    8.62057    0   40   11.99519    8.62057  28.1%     -   12s
     0     0    8.62532    0   40   11.99519    8.62532  28.1%     -   12s
     0     0    8.66820    0   40   11.99519    8.66820  27.7%     -   13s
     0     0    8.66896    0   40   11.99519    8.66896  27.7%     -   13s
     0     0    8.69440    0   40   11.99519    8.69440  27.5%     -   14s
     0     0    8.69658    0   40   11.99519    8.69658  27.5%     -   14s
     0     0    8.74981    0   40   11.99519    8.74981  27.1%     -   15s
     0     0    8.76666    0   40   11.99519    8.76666  26.9%     -   16s
     0     0    8.77511    0   40   11.99519    8.77511  26.8%     -   16s
     0     0    8.81332    0   40   11.99519    8.81332  26.5%     -   17s
     0     0    8.81341    0   40   11.99519    8.81341  26.5%     -   18s
     0     0    8.85162    0   40   11.99519    8.85162  26.2%     -   18s
     0     0    8.87427    0   40   11.99519    8.87427  26.0%     -   19s
     0     0    8.89965    0   40   11.99519    8.89965  25.8%     -   19s
     0     0    8.91044    0   40   11.99519    8.91044  25.7%     -   20s
     0     0    8.92561    0   40   11.99519    8.92561  25.6%     -   21s
     0     0    8.94447    0   40   11.99519    8.94447  25.4%     -   21s
     0     0    8.94454    0   40   11.99519    8.94454  25.4%     -   22s
     0     0    8.96389    0   40   11.99519    8.96389  25.3%     -   22s
     0     0    8.98273    0   40   11.99519    8.98273  25.1%     -   23s
     0     0    8.98806    0   40   11.99519    8.98806  25.1%     -   24s
     0     0    8.99701    0   40   11.99519    8.99701  25.0%     -   24s
     0     0    8.99998    0   40   11.99519    8.99998  25.0%     -   25s
     0     0    9.00375    0   40   11.99519    9.00375  24.9%     -   26s
     0     0    9.00447    0   40   11.99519    9.00447  24.9%     -   27s
     0     0    9.00449    0   40   11.99519    9.00449  24.9%     -   27s
     0     0    9.00785    0   40   11.99519    9.00785  24.9%     -   28s
     0     0    9.00793    0   40   11.99519    9.00793  24.9%     -   29s
     0     0    9.01524    0   40   11.99519    9.01524  24.8%     -   29s
     0     0    9.01552    0   40   11.99519    9.01552  24.8%     -   30s
     0     0    9.02187    0   40   11.99519    9.02187  24.8%     -   30s
     0     0    9.02236    0   40   11.99519    9.02236  24.8%     -   31s
     0     0    9.02236    0   40   11.99519    9.02236  24.8%     -   31s
     0     0    9.02659    0   40   11.99519    9.02659  24.7%     -   32s
     0     0    9.02670    0   40   11.99519    9.02670  24.7%     -   32s
     0     0    9.02838    0   40   11.99519    9.02838  24.7%     -   33s
     0     0    9.02861    0   40   11.99519    9.02861  24.7%     -   33s
     0     0    9.03128    0   40   11.99519    9.03128  24.7%     -   34s
     0     0    9.03175    0   40   11.99519    9.03175  24.7%     -   34s
     0     0    9.03299    0   40   11.99519    9.03299  24.7%     -   35s
     0     0   11.94457    0    2   11.99519   11.94457  0.42%     -   38s
     0     2   11.95075    0    2   11.99519   11.95075  0.37%     -   39s

Cutting planes:
  Cover: 2
  Network: 24

Explored 5 nodes (4803 simplex iterations) in 39.51 seconds
Thread count was 1 (of 24 available processors)

Solution count 2: 11.9952 23.1829 

Optimal solution found (tolerance 1.00e-04)
Best objective 1.199518849869e+01, best bound 1.199518849869e+01, gap 0.0000%
